
  12    4
  10   10   10   10

   0   0   0   0   0   1 2 
  10  10  10  10  10   5 11 7 5 4 3 
   5  10  10  10  10   3 10 9 6 
   1  10  10  10  10   3 10 9 6 
   8  10  10  10  10   2 9 6 
   1  10  10  10  10   1 8 
   1  10  10  10  10   1 8 
   1  10  10  10  10   1 12
   5  10  10  10  10   1 12
   3  10  10  10  10   1 12
   4  10  10  10  10   1 12
   0   0   0   0   0   0 
